Route 1: 28 12 21 40 26 13
Route 2: 27 31 30 9 20 32 1
Route 3: 33 29 3 50 24 25
Route 4: 5 45 7 18 6 37 17
Route 5: 42 2 15 41 22 4
Route 6: 47 36 19 8 46 48
Route 7: 11 49 10
Route 8: 14 44 16 38 43
Route 9: 39 23 34 35
Vehicles: 9
Distance: 1017.18
